# Solution for model cur_assignment
# Objective value = 5.7638906838790592e+02
Assign[0,0] 0
Assign[0,1] 0
Assign[0,2] 0
Assign[0,3] 1
Assign[0,4] 0
Assign[1,0] 0
Assign[1,1] 1
Assign[1,2] 0
Assign[1,3] 0
Assign[1,4] 0
Assign[2,0] 1
Assign[2,1] 0
Assign[2,2] 0
Assign[2,3] 0
Assign[2,4] 0
Assign[3,0] 1
Assign[3,1] 0
Assign[3,2] 0
Assign[3,3] 0
Assign[3,4] 0
Assign[4,0] 0
Assign[4,1] 0
Assign[4,2] 1
Assign[4,3] 0
Assign[4,4] 0
Assign[5,0] 0
Assign[5,1] 0
Assign[5,2] 1
Assign[5,3] 0
Assign[5,4] 0
Assign[6,0] 0
Assign[6,1] 0
Assign[6,2] 1
Assign[6,3] 0
Assign[6,4] 0
Assign[7,0] 0
Assign[7,1] 0
Assign[7,2] 1
Assign[7,3] 0
Assign[7,4] 0
Assign[8,0] 1
Assign[8,1] 0
Assign[8,2] 0
Assign[8,3] 0
Assign[8,4] 0
Assign[9,0] 1
Assign[9,1] 0
Assign[9,2] 0
Assign[9,3] 0
Assign[9,4] 0
Assign[10,0] 1
Assign[10,1] 0
Assign[10,2] 0
Assign[10,3] 0
Assign[10,4] 0
Assign[11,0] 1
Assign[11,1] 0
Assign[11,2] 0
Assign[11,3] 0
Assign[11,4] 0
Assign[12,0] 0
Assign[12,1] 0
Assign[12,2] 0
Assign[12,3] 1
Assign[12,4] 0
Assign[13,0] 0
Assign[13,1] 0
Assign[13,2] 0
Assign[13,3] 1
Assign[13,4] 0
Assign[14,0] 0
Assign[14,1] 0
Assign[14,2] 0
Assign[14,3] 1
Assign[14,4] 0
Assign[15,0] 0
Assign[15,1] 0
Assign[15,2] 1
Assign[15,3] 0
Assign[15,4] 0
Assign[16,0] 0
Assign[16,1] 0
Assign[16,2] 0
Assign[16,3] 1
Assign[16,4] 0
Assign[17,0] 0
Assign[17,1] 0
Assign[17,2] 0
Assign[17,3] 1
Assign[17,4] 0
Assign[18,0] 0
Assign[18,1] 0
Assign[18,2] 0
Assign[18,3] 0
Assign[18,4] 1
Assign[19,0] 1
Assign[19,1] 0
Assign[19,2] 0
Assign[19,3] 0
Assign[19,4] 0
Assign[20,0] 0
Assign[20,1] 0
Assign[20,2] 0
Assign[20,3] 1
Assign[20,4] 0
Assign[21,0] 0
Assign[21,1] 0
Assign[21,2] 0
Assign[21,3] 1
Assign[21,4] 0
Assign[22,0] 0
Assign[22,1] 0
Assign[22,2] 0
Assign[22,3] 1
Assign[22,4] 0
Assign[23,0] 0
Assign[23,1] 0
Assign[23,2] 0
Assign[23,3] 1
Assign[23,4] 0
Assign[24,0] 0
Assign[24,1] 1
Assign[24,2] 0
Assign[24,3] 0
Assign[24,4] 0
Assign[25,0] 0
Assign[25,1] 1
Assign[25,2] 0
Assign[25,3] 0
Assign[25,4] 0
Assign[26,0] 0
Assign[26,1] 0
Assign[26,2] 0
Assign[26,3] 0
Assign[26,4] 1
Assign[27,0] 0
Assign[27,1] 0
Assign[27,2] 0
Assign[27,3] 0
Assign[27,4] 1
Assign[28,0] 0
Assign[28,1] 1
Assign[28,2] 0
Assign[28,3] 0
Assign[28,4] 0
Assign[29,0] 0
Assign[29,1] 1
Assign[29,2] 0
Assign[29,3] 0
Assign[29,4] 0
Assign[30,0] 0
Assign[30,1] 0
Assign[30,2] 0
Assign[30,3] 1
Assign[30,4] 0
Assign[31,0] 0
Assign[31,1] 0
Assign[31,2] 0
Assign[31,3] 0
Assign[31,4] 1
Assign[32,0] 0
Assign[32,1] 0
Assign[32,2] 0
Assign[32,3] 1
Assign[32,4] 0
Assign[33,0] 0
Assign[33,1] 0
Assign[33,2] 0
Assign[33,3] 1
Assign[33,4] 0
Assign[34,0] 0
Assign[34,1] 1
Assign[34,2] 0
Assign[34,3] 0
Assign[34,4] 0
Assign[35,0] 0
Assign[35,1] 1
Assign[35,2] 0
Assign[35,3] 0
Assign[35,4] 0
Assign[36,0] 0
Assign[36,1] 1
Assign[36,2] 0
Assign[36,3] 0
Assign[36,4] 0
Assign[37,0] 0
Assign[37,1] 0
Assign[37,2] 1
Assign[37,3] 0
Assign[37,4] 0
Assign[38,0] 0
Assign[38,1] 1
Assign[38,2] 0
Assign[38,3] 0
Assign[38,4] 0
Assign[39,0] 1
Assign[39,1] 0
Assign[39,2] 0
Assign[39,3] 0
Assign[39,4] 0
Assign[40,0] 0
Assign[40,1] 0
Assign[40,2] 0
Assign[40,3] 1
Assign[40,4] 0
Assign[41,0] 0
Assign[41,1] 1
Assign[41,2] 0
Assign[41,3] 0
Assign[41,4] 0
Assign[42,0] 0
Assign[42,1] 1
Assign[42,2] 0
Assign[42,3] 0
Assign[42,4] 0
Assign[43,0] 0
Assign[43,1] 1
Assign[43,2] 0
Assign[43,3] 0
Assign[43,4] 0
Assign[44,0] 0
Assign[44,1] 1
Assign[44,2] 0
Assign[44,3] 0
Assign[44,4] 0
Assign[45,0] 0
Assign[45,1] 1
Assign[45,2] 0
Assign[45,3] 0
Assign[45,4] 0
Assign[46,0] 0
Assign[46,1] 1
Assign[46,2] 0
Assign[46,3] 0
Assign[46,4] 0
Assign[47,0] 0
Assign[47,1] 1
Assign[47,2] 0
Assign[47,3] 0
Assign[47,4] 0
Assign[48,0] 0
Assign[48,1] 0
Assign[48,2] 0
Assign[48,3] 1
Assign[48,4] 0
Assign[49,0] 0
Assign[49,1] 0
Assign[49,2] 0
Assign[49,3] 1
Assign[49,4] 0
Assign[50,0] 0
Assign[50,1] 1
Assign[50,2] 0
Assign[50,3] 0
Assign[50,4] 0
Assign[51,0] 1
Assign[51,1] 0
Assign[51,2] 0
Assign[51,3] 0
Assign[51,4] 0
Assign[52,0] 1
Assign[52,1] 0
Assign[52,2] 0
Assign[52,3] 0
Assign[52,4] 0
Assign[53,0] 1
Assign[53,1] 0
Assign[53,2] 0
Assign[53,3] 0
Assign[53,4] 0
Assign[54,0] 1
Assign[54,1] 0
Assign[54,2] 0
Assign[54,3] 0
Assign[54,4] 0
Assign[55,0] 1
Assign[55,1] 0
Assign[55,2] 0
Assign[55,3] 0
Assign[55,4] 0
Assign[56,0] 0
Assign[56,1] 0
Assign[56,2] 0
Assign[56,3] 0
Assign[56,4] 1
Assign[57,0] 0
Assign[57,1] 0
Assign[57,2] 0
Assign[57,3] 1
Assign[57,4] 0
Assign[58,0] 0
Assign[58,1] 0
Assign[58,2] 0
Assign[58,3] 1
Assign[58,4] 0
Assign[59,0] 0
Assign[59,1] 0
Assign[59,2] 0
Assign[59,3] 1
Assign[59,4] 0
Assign[60,0] 0
Assign[60,1] 0
Assign[60,2] 0
Assign[60,3] 1
Assign[60,4] 0
Assign[61,0] 0
Assign[61,1] 0
Assign[61,2] 0
Assign[61,3] 1
Assign[61,4] 0
Assign[62,0] 0
Assign[62,1] 0
Assign[62,2] 0
Assign[62,3] 1
Assign[62,4] 0
Assign[63,0] 0
Assign[63,1] 0
Assign[63,2] 0
Assign[63,3] 1
Assign[63,4] 0
Assign[64,0] 0
Assign[64,1] 0
Assign[64,2] 0
Assign[64,3] 1
Assign[64,4] 0
Assign[65,0] 1
Assign[65,1] 0
Assign[65,2] 0
Assign[65,3] 0
Assign[65,4] 0
Assign[66,0] 1
Assign[66,1] 0
Assign[66,2] 0
Assign[66,3] 0
Assign[66,4] 0
Assign[67,0] 1
Assign[67,1] 0
Assign[67,2] 0
Assign[67,3] 0
Assign[67,4] 0
Assign[68,0] 0
Assign[68,1] 0
Assign[68,2] 1
Assign[68,3] 0
Assign[68,4] 0
Assign[69,0] 0
Assign[69,1] 0
Assign[69,2] 0
Assign[69,3] 1
Assign[69,4] 0
Assign[70,0] 0
Assign[70,1] 0
Assign[70,2] 0
Assign[70,3] 1
Assign[70,4] 0
Assign[71,0] 1
Assign[71,1] 0
Assign[71,2] 0
Assign[71,3] 0
Assign[71,4] 0
Assign[72,0] 0
Assign[72,1] 0
Assign[72,2] 1
Assign[72,3] 0
Assign[72,4] 0
Assign[73,0] 0
Assign[73,1] 0
Assign[73,2] 1
Assign[73,3] 0
Assign[73,4] 0
Assign[74,0] 0
Assign[74,1] 0
Assign[74,2] 1
Assign[74,3] 0
Assign[74,4] 0
Assign[75,0] 0
Assign[75,1] 0
Assign[75,2] 0
Assign[75,3] 1
Assign[75,4] 0
Assign[76,0] 0
Assign[76,1] 0
Assign[76,2] 0
Assign[76,3] 1
Assign[76,4] 0
Assign[77,0] 0
Assign[77,1] 1
Assign[77,2] 0
Assign[77,3] 0
Assign[77,4] 0
Assign[78,0] 1
Assign[78,1] 0
Assign[78,2] 0
Assign[78,3] 0
Assign[78,4] 0
Assign[79,0] 1
Assign[79,1] 0
Assign[79,2] 0
Assign[79,3] 0
Assign[79,4] 0
Assign[80,0] 1
Assign[80,1] 0
Assign[80,2] 0
Assign[80,3] 0
Assign[80,4] 0
Assign[81,0] 1
Assign[81,1] 0
Assign[81,2] 0
Assign[81,3] 0
Assign[81,4] 0
Assign[82,0] 0
Assign[82,1] 1
Assign[82,2] 0
Assign[82,3] 0
Assign[82,4] 0
Assign[83,0] 0
Assign[83,1] 1
Assign[83,2] 0
Assign[83,3] 0
Assign[83,4] 0
Assign[84,0] 0
Assign[84,1] 0
Assign[84,2] 1
Assign[84,3] 0
Assign[84,4] 0
Assign[85,0] 0
Assign[85,1] 0
Assign[85,2] 1
Assign[85,3] 0
Assign[85,4] 0
Assign[86,0] 0
Assign[86,1] 1
Assign[86,2] 0
Assign[86,3] 0
Assign[86,4] 0
Assign[87,0] 0
Assign[87,1] 1
Assign[87,2] 0
Assign[87,3] 0
Assign[87,4] 0
Assign[88,0] 0
Assign[88,1] 1
Assign[88,2] 0
Assign[88,3] 0
Assign[88,4] 0
Assign[89,0] 1
Assign[89,1] 0
Assign[89,2] 0
Assign[89,3] 0
Assign[89,4] 0
Assign[90,0] 0
Assign[90,1] 0
Assign[90,2] 0
Assign[90,3] 0
Assign[90,4] 1
Assign[91,0] 0
Assign[91,1] 0
Assign[91,2] 0
Assign[91,3] 1
Assign[91,4] 0
Assign[92,0] 0
Assign[92,1] 0
Assign[92,2] 0
Assign[92,3] 1
Assign[92,4] 0
Assign[93,0] 0
Assign[93,1] 0
Assign[93,2] 0
Assign[93,3] 1
Assign[93,4] 0
Assign[94,0] 0
Assign[94,1] 0
Assign[94,2] 0
Assign[94,3] 1
Assign[94,4] 0
Assign[95,0] 0
Assign[95,1] 0
Assign[95,2] 1
Assign[95,3] 0
Assign[95,4] 0
Assign[96,0] 0
Assign[96,1] 0
Assign[96,2] 0
Assign[96,3] 1
Assign[96,4] 0
Assign[97,0] 0
Assign[97,1] 0
Assign[97,2] 0
Assign[97,3] 1
Assign[97,4] 0
Assign[98,0] 0
Assign[98,1] 0
Assign[98,2] 0
Assign[98,3] 1
Assign[98,4] 0
Assign[99,0] 1
Assign[99,1] 0
Assign[99,2] 0
Assign[99,3] 0
Assign[99,4] 0
Assign[100,0] 0
Assign[100,1] 0
Assign[100,2] 0
Assign[100,3] 0
Assign[100,4] 1
Assign[101,0] 0
Assign[101,1] 0
Assign[101,2] 0
Assign[101,3] 0
Assign[101,4] 1
Assign[102,0] 0
Assign[102,1] 0
Assign[102,2] 1
Assign[102,3] 0
Assign[102,4] 0
Assign[103,0] 1
Assign[103,1] 0
Assign[103,2] 0
Assign[103,3] 0
Assign[103,4] 0
Assign[104,0] 0
Assign[104,1] 0
Assign[104,2] 0
Assign[104,3] 1
Assign[104,4] 0
Assign[105,0] 0
Assign[105,1] 0
Assign[105,2] 0
Assign[105,3] 0
Assign[105,4] 1
Assign[106,0] 0
Assign[106,1] 1
Assign[106,2] 0
Assign[106,3] 0
Assign[106,4] 0
Assign[107,0] 0
Assign[107,1] 0
Assign[107,2] 1
Assign[107,3] 0
Assign[107,4] 0
Assign[108,0] 0
Assign[108,1] 1
Assign[108,2] 0
Assign[108,3] 0
Assign[108,4] 0
Assign[109,0] 1
Assign[109,1] 0
Assign[109,2] 0
Assign[109,3] 0
Assign[109,4] 0
Assign[110,0] 1
Assign[110,1] 0
Assign[110,2] 0
Assign[110,3] 0
Assign[110,4] 0
Assign[111,0] 0
Assign[111,1] 1
Assign[111,2] 0
Assign[111,3] 0
Assign[111,4] 0
Assign[112,0] 1
Assign[112,1] 0
Assign[112,2] 0
Assign[112,3] 0
Assign[112,4] 0
Assign[113,0] 0
Assign[113,1] 1
Assign[113,2] 0
Assign[113,3] 0
Assign[113,4] 0
Assign[114,0] 0
Assign[114,1] 0
Assign[114,2] 0
Assign[114,3] 1
Assign[114,4] 0
Assign[115,0] 0
Assign[115,1] 0
Assign[115,2] 0
Assign[115,3] 1
Assign[115,4] 0
Assign[116,0] 0
Assign[116,1] 0
Assign[116,2] 0
Assign[116,3] 1
Assign[116,4] 0
Assign[117,0] 0
Assign[117,1] 0
Assign[117,2] 0
Assign[117,3] 1
Assign[117,4] 0
Assign[118,0] 0
Assign[118,1] 1
Assign[118,2] 0
Assign[118,3] 0
Assign[118,4] 0
Assign[119,0] 0
Assign[119,1] 0
Assign[119,2] 0
Assign[119,3] 1
Assign[119,4] 0
Assign[120,0] 1
Assign[120,1] 0
Assign[120,2] 0
Assign[120,3] 0
Assign[120,4] 0
Assign[121,0] 0
Assign[121,1] 0
Assign[121,2] 1
Assign[121,3] 0
Assign[121,4] 0
Assign[122,0] 1
Assign[122,1] 0
Assign[122,2] 0
Assign[122,3] 0
Assign[122,4] 0
Assign[123,0] 0
Assign[123,1] 0
Assign[123,2] 0
Assign[123,3] 1
Assign[123,4] 0
Assign[124,0] 0
Assign[124,1] 0
Assign[124,2] 0
Assign[124,3] 1
Assign[124,4] 0
Assign[125,0] 0
Assign[125,1] 0
Assign[125,2] 0
Assign[125,3] 1
Assign[125,4] 0
Assign[126,0] 1
Assign[126,1] 0
Assign[126,2] 0
Assign[126,3] 0
Assign[126,4] 0
Assign[127,0] 0
Assign[127,1] 1
Assign[127,2] 0
Assign[127,3] 0
Assign[127,4] 0
Assign[128,0] 0
Assign[128,1] 0
Assign[128,2] 1
Assign[128,3] 0
Assign[128,4] 0
Assign[129,0] 0
Assign[129,1] 1
Assign[129,2] 0
Assign[129,3] 0
Assign[129,4] 0
Assign[130,0] 0
Assign[130,1] 1
Assign[130,2] 0
Assign[130,3] 0
Assign[130,4] 0
Assign[131,0] 0
Assign[131,1] 0
Assign[131,2] 1
Assign[131,3] 0
Assign[131,4] 0
Assign[132,0] 0
Assign[132,1] 0
Assign[132,2] 1
Assign[132,3] 0
Assign[132,4] 0
Assign[133,0] 1
Assign[133,1] 0
Assign[133,2] 0
Assign[133,3] 0
Assign[133,4] 0
Assign[134,0] 0
Assign[134,1] 0
Assign[134,2] 1
Assign[134,3] 0
Assign[134,4] 0
Assign[135,0] 0
Assign[135,1] 0
Assign[135,2] 0
Assign[135,3] 1
Assign[135,4] 0
Assign[136,0] 0
Assign[136,1] 0
Assign[136,2] 1
Assign[136,3] 0
Assign[136,4] 0
Assign[137,0] 0
Assign[137,1] 0
Assign[137,2] 0
Assign[137,3] 0
Assign[137,4] 1
Assign[138,0] 0
Assign[138,1] 0
Assign[138,2] 0
Assign[138,3] 0
Assign[138,4] 1
Assign[139,0] 0
Assign[139,1] 0
Assign[139,2] 1
Assign[139,3] 0
Assign[139,4] 0
Assign[140,0] 0
Assign[140,1] 0
Assign[140,2] 0
Assign[140,3] 1
Assign[140,4] 0
Assign[141,0] 1
Assign[141,1] 0
Assign[141,2] 0
Assign[141,3] 0
Assign[141,4] 0
Assign[142,0] 0
Assign[142,1] 1
Assign[142,2] 0
Assign[142,3] 0
Assign[142,4] 0
Assign[143,0] 0
Assign[143,1] 1
Assign[143,2] 0
Assign[143,3] 0
Assign[143,4] 0
Assign[144,0] 0
Assign[144,1] 0
Assign[144,2] 0
Assign[144,3] 1
Assign[144,4] 0
Assign[145,0] 0
Assign[145,1] 1
Assign[145,2] 0
Assign[145,3] 0
Assign[145,4] 0
Assign[146,0] 0
Assign[146,1] 1
Assign[146,2] 0
Assign[146,3] 0
Assign[146,4] 0
Assign[147,0] 0
Assign[147,1] 0
Assign[147,2] 0
Assign[147,3] 1
Assign[147,4] 0
Assign[148,0] 0
Assign[148,1] 0
Assign[148,2] 0
Assign[148,3] 1
Assign[148,4] 0
Assign[149,0] 0
Assign[149,1] 1
Assign[149,2] 0
Assign[149,3] 0
Assign[149,4] 0
Assign[150,0] 0
Assign[150,1] 1
Assign[150,2] 0
Assign[150,3] 0
Assign[150,4] 0
Assign[151,0] 0
Assign[151,1] 1
Assign[151,2] 0
Assign[151,3] 0
Assign[151,4] 0
Assign[152,0] 0
Assign[152,1] 0
Assign[152,2] 0
Assign[152,3] 1
Assign[152,4] 0
Assign[153,0] 0
Assign[153,1] 0
Assign[153,2] 0
Assign[153,3] 1
Assign[153,4] 0
Assign[154,0] 0
Assign[154,1] 0
Assign[154,2] 0
Assign[154,3] 1
Assign[154,4] 0
Assign[155,0] 0
Assign[155,1] 0
Assign[155,2] 1
Assign[155,3] 0
Assign[155,4] 0
Assign[156,0] 0
Assign[156,1] 0
Assign[156,2] 1
Assign[156,3] 0
Assign[156,4] 0
Assign[157,0] 0
Assign[157,1] 0
Assign[157,2] 0
Assign[157,3] 1
Assign[157,4] 0
Assign[158,0] 0
Assign[158,1] 0
Assign[158,2] 0
Assign[158,3] 1
Assign[158,4] 0
Assign[159,0] 0
Assign[159,1] 1
Assign[159,2] 0
Assign[159,3] 0
Assign[159,4] 0
Assign[160,0] 0
Assign[160,1] 1
Assign[160,2] 0
Assign[160,3] 0
Assign[160,4] 0
Assign[161,0] 0
Assign[161,1] 0
Assign[161,2] 0
Assign[161,3] 0
Assign[161,4] 1
Assign[162,0] 0
Assign[162,1] 0
Assign[162,2] 0
Assign[162,3] 1
Assign[162,4] 0
